c This Formular is generated by mcnf
c
c    horn? no 
c    forced? no 
c    mixed sat? no 
c    clause length = 3 
c
p cnf 20  91 
b0  a0 0
-a0  -b0 0
-b1  a1  0
-a1  b1  0
b2  a2 0
-a1  a2 0
-b1  a2 0
-a1  -b2  a2 0
-b1  -b2  a2 0
-b1  -a1  a2 0
-a2  -a1  b2 0
b2  -a1 0
-b1  -a1  b2 0
-a2  -b1  b2 0
b2  -b1  0
-a2  -b2  a1 0
-b1  -b2  a1 0
-a2  -b1  a1 0
-a2  -b2  b1 0
-a1  -b2  b1 0
-a2  -a1  b1 0
%
0
